9083
9131
9106
9105
9154
9183
9353
9373
8917
9063
9133
9233
9210
9095
9223
9000
9180
8985
9190
9084
9167
9164
9142
9213
9034
8978
9034
9123
9112
9067
9172
9054
9052
9159
9255
9144
9178
9166
9261
9207
9206
9103
9053
9032
9245
9217
9062
9224
9189
9149
9105
9098
9182
8935
9266
9208
8974
9186
9293
9199
9143
9167
9234
9098
9259
9152
9145
8970
9285
9173
9064
9151
9282
8899
9127
9111
9029
9277
9152
9151
9236
9213
9262
9261
9173
9230
9078
9278
9316
9069
9041
9194
9224
9216
8930
9166
9165
8989
9169
9154
